c 
c G(k,n,p) graph
c graph gen seed     : 619200
c number of vertices : 80
c max number of edges: 1600
c number of classes  : 2
c edge density       : 0.300000
c edge probability   : 0.600000
c data structure     : dense
c
c           Graph Stats
c number of vertices  : 80
c nonisolated vertices: 80
c number of edges     : 966
c edge density        : 0.305696
c max degree          : 33
c avg degree          : 24.15
c min degree          : 17
p col 80 966
e 1 2
e 1 11
e 1 16
e 1 20
e 1 26
e 1 30
e 1 31
e 1 37
e 1 40
e 1 44
e 1 49
e 1 56
e 1 58
e 1 59
e 1 62
e 1 65
e 1 69
e 1 70
e 1 73
e 2 5
e 2 10
e 2 12
e 2 17
e 2 18
e 2 19
e 2 22
e 2 23
e 2 25
e 2 27
e 2 28
e 2 29
e 2 41
e 2 47
e 2 50
e 2 54
e 2 57
e 2 64
e 2 67
e 2 68
e 2 72
e 2 74
e 2 75
e 2 76
e 2 79
e 3 6
e 3 8
e 3 10
e 3 12
e 3 17
e 3 21
e 3 22
e 3 27
e 3 28
e 3 29
e 3 41
e 3 42
e 3 50
e 3 52
e 3 54
e 3 57
e 3 64
e 3 68
e 3 72
e 3 75
e 3 76
e 3 79
e 3 80
e 4 11
e 4 14
e 4 20
e 4 26
e 4 31
e 4 32
e 4 33
e 4 34
e 4 37
e 4 40
e 4 43
e 4 49
e 4 59
e 4 60
e 4 65
e 4 66
e 4 69
e 4 78
e 5 14
e 5 26
e 5 30
e 5 32
e 5 33
e 5 34
e 5 35
e 5 36
e 5 40
e 5 44
e 5 45
e 5 56
e 5 58
e 5 59
e 5 60
e 5 62
e 5 65
e 5 70
e 5 71
e 5 73
e 5 78
e 6 14
e 6 15
e 6 16
e 6 20
e 6 26
e 6 31
e 6 32
e 6 34
e 6 35
e 6 36
e 6 46
e 6 49
e 6 51
e 6 58
e 6 62
e 6 65
e 6 66
e 6 70
e 6 71
e 6 77
e 7 10
e 7 12
e 7 13
e 7 18
e 7 19
e 7 21
e 7 23
e 7 25
e 7 27
e 7 28
e 7 29
e 7 38
e 7 39
e 7 47
e 7 48
e 7 50
e 7 52
e 7 55
e 7 57
e 7 61
e 7 67
e 7 68
e 7 74
e 7 76
e 7 80
e 8 11
e 8 14
e 8 15
e 8 20
e 8 32
e 8 33
e 8 36
e 8 37
e 8 40
e 8 43
e 8 44
e 8 45
e 8 46
e 8 51
e 8 58
e 8 60
e 8 62
e 8 66
e 8 69
e 8 70
e 8 71
e 8 77
e 8 78
e 9 11
e 9 14
e 9 16
e 9 20
e 9 26
e 9 33
e 9 34
e 9 35
e 9 36
e 9 37
e 9 43
e 9 44
e 9 46
e 9 49
e 9 56
e 9 58
e 9 59
e 9 62
e 9 65
e 9 66
e 9 69
e 9 73
e 9 77
e 10 11
e 10 14
e 10 26
e 10 30
e 10 32
e 10 33
e 10 34
e 10 35
e 10 36
e 10 40
e 10 45
e 10 46
e 10 51
e 10 58
e 10 59
e 10 62
e 10 69
e 10 70
e 10 71
e 10 73
e 10 77
e 10 78
e 11 12
e 11 17
e 11 21
e 11 22
e 11 24
e 11 25
e 11 28
e 11 29
e 11 38
e 11 39
e 11 42
e 11 47
e 11 48
e 11 50
e 11 53
e 11 63
e 11 64
e 11 67
e 11 68
e 11 74
e 11 75
e 11 79
e 11 80
e 12 14
e 12 15
e 12 20
e 12 26
e 12 30
e 12 32
e 12 33
e 12 36
e 12 37
e 12 45
e 12 46
e 12 49
e 12 51
e 12 58
e 12 60
e 12 66
e 12 70
e 12 73
e 12 77
e 12 78
e 13 14
e 13 15
e 13 16
e 13 20
e 13 32
e 13 33
e 13 35
e 13 37
e 13 43
e 13 44
e 13 45
e 13 46
e 13 49
e 13 51
e 13 56
e 13 58
e 13 59
e 13 62
e 13 65
e 13 71
e 13 73
e 13 78
e 14 17
e 14 19
e 14 22
e 14 24
e 14 25
e 14 27
e 14 28
e 14 41
e 14 42
e 14 50
e 14 52
e 14 53
e 14 54
e 14 61
e 14 64
e 14 67
e 14 68
e 14 72
e 14 74
e 14 75
e 14 80
e 15 19
e 15 22
e 15 23
e 15 25
e 15 27
e 15 29
e 15 39
e 15 41
e 15 42
e 15 48
e 15 52
e 15 53
e 15 54
e 15 55
e 15 57
e 15 61
e 15 63
e 15 64
e 15 67
e 15 68
e 15 72
e 15 75
e 15 76
e 16 17
e 16 18
e 16 19
e 16 21
e 16 22
e 16 24
e 16 25
e 16 27
e 16 28
e 16 29
e 16 39
e 16 41
e 16 47
e 16 48
e 16 50
e 16 53
e 16 55
e 16 57
e 16 61
e 16 63
e 16 64
e 16 67
e 16 68
e 16 72
e 16 79
e 17 20
e 17 26
e 17 30
e 17 31
e 17 35
e 17 36
e 17 37
e 17 43
e 17 44
e 17 45
e 17 46
e 17 51
e 17 56
e 17 59
e 17 60
e 17 62
e 17 65
e 17 69
e 17 71
e 17 73
e 17 78
e 18 20
e 18 31
e 18 32
e 18 34
e 18 36
e 18 44
e 18 45
e 18 49
e 18 56
e 18 58
e 18 59
e 18 60
e 18 65
e 18 66
e 18 69
e 18 70
e 18 71
e 18 73
e 18 77
e 19 26
e 19 30
e 19 31
e 19 35
e 19 36
e 19 40
e 19 45
e 19 49
e 19 51
e 19 58
e 19 59
e 19 60
e 19 66
e 19 70
e 19 71
e 19 73
e 19 77
e 20 24
e 20 25
e 20 27
e 20 28
e 20 38
e 20 39
e 20 41
e 20 48
e 20 57
e 20 61
e 20 64
e 20 74
e 20 75
e 21 26
e 21 31
e 21 33
e 21 34
e 21 35
e 21 36
e 21 37
e 21 40
e 21 49
e 21 56
e 21 58
e 21 59
e 21 60
e 21 62
e 21 65
e 21 69
e 21 73
e 21 77
e 22 26
e 22 31
e 22 35
e 22 36
e 22 43
e 22 49
e 22 51
e 22 56
e 22 60
e 22 62
e 22 65
e 22 69
e 22 78
e 23 26
e 23 30
e 23 31
e 23 32
e 23 35
e 23 43
e 23 46
e 23 49
e 23 58
e 23 59
e 23 60
e 23 62
e 23 65
e 23 69
e 23 70
e 23 77
e 24 26
e 24 31
e 24 32
e 24 34
e 24 36
e 24 37
e 24 40
e 24 43
e 24 44
e 24 45
e 24 49
e 24 51
e 24 56
e 24 58
e 24 60
e 24 62
e 24 66
e 24 71
e 24 78
e 25 26
e 25 31
e 25 32
e 25 33
e 25 34
e 25 35
e 25 36
e 25 46
e 25 49
e 25 51
e 25 56
e 25 59
e 25 62
e 25 65
e 25 69
e 25 70
e 25 71
e 25 73
e 25 78
e 26 28
e 26 39
e 26 41
e 26 48
e 26 50
e 26 52
e 26 53
e 26 54
e 26 55
e 26 57
e 26 61
e 26 64
e 26 68
e 26 72
e 26 74
e 26 75
e 26 79
e 27 30
e 27 32
e 27 33
e 27 43
e 27 46
e 27 59
e 27 66
e 27 69
e 27 70
e 27 73
e 27 78
e 28 31
e 28 33
e 28 34
e 28 37
e 28 40
e 28 43
e 28 44
e 28 45
e 28 46
e 28 49
e 28 51
e 28 56
e 28 62
e 28 77
e 28 78
e 29 30
e 29 31
e 29 33
e 29 34
e 29 37
e 29 40
e 29 43
e 29 45
e 29 46
e 29 49
e 29 51
e 29 56
e 29 58
e 29 59
e 29 60
e 29 62
e 29 65
e 29 70
e 29 71
e 29 77
e 30 38
e 30 39
e 30 41
e 30 42
e 30 47
e 30 50
e 30 52
e 30 53
e 30 54
e 30 57
e 30 63
e 30 64
e 30 67
e 30 68
e 30 72
e 30 74
e 30 75
e 30 79
e 30 80
e 31 38
e 31 39
e 31 52
e 31 53
e 31 55
e 31 57
e 31 68
e 31 72
e 31 76
e 31 80
e 32 38
e 32 39
e 32 41
e 32 42
e 32 47
e 32 48
e 32 50
e 32 52
e 32 61
e 32 76
e 33 38
e 33 39
e 33 42
e 33 47
e 33 48
e 33 52
e 33 53
e 33 54
e 33 57
e 33 63
e 33 64
e 33 67
e 33 68
e 34 38
e 34 39
e 34 41
e 34 42
e 34 47
e 34 48
e 34 50
e 34 52
e 34 54
e 34 57
e 34 61
e 34 63
e 34 64
e 34 68
e 34 72
e 34 74
e 34 80
e 35 38
e 35 39
e 35 42
e 35 53
e 35 57
e 35 61
e 35 63
e 35 67
e 35 68
e 35 74
e 35 75
e 35 76
e 35 79
e 35 80
e 36 39
e 36 41
e 36 47
e 36 48
e 36 50
e 36 53
e 36 57
e 36 63
e 36 68
e 36 72
e 36 74
e 36 75
e 36 76
e 36 79
e 37 39
e 37 41
e 37 48
e 37 50
e 37 52
e 37 53
e 37 55
e 37 57
e 37 61
e 37 64
e 37 67
e 37 68
e 37 72
e 37 76
e 38 40
e 38 44
e 38 45
e 38 46
e 38 49
e 38 51
e 38 59
e 38 60
e 38 65
e 38 69
e 38 70
e 38 71
e 38 73
e 38 77
e 38 78
e 39 40
e 39 43
e 39 44
e 39 46
e 39 49
e 39 56
e 39 62
e 39 65
e 39 66
e 39 70
e 39 73
e 39 77
e 40 42
e 40 47
e 40 50
e 40 52
e 40 53
e 40 55
e 40 57
e 40 61
e 40 63
e 40 64
e 40 68
e 40 72
e 40 76
e 41 44
e 41 46
e 41 56
e 41 58
e 41 69
e 41 70
e 41 71
e 41 73
e 41 78
e 42 44
e 42 45
e 42 49
e 42 51
e 42 56
e 42 58
e 42 60
e 42 65
e 42 66
e 42 70
e 42 73
e 42 77
e 42 78
e 43 47
e 43 48
e 43 50
e 43 52
e 43 54
e 43 55
e 43 57
e 43 61
e 43 68
e 43 76
e 44 47
e 44 48
e 44 52
e 44 57
e 44 64
e 44 67
e 44 72
e 44 75
e 44 79
e 44 80
e 45 47
e 45 50
e 45 52
e 45 53
e 45 54
e 45 55
e 45 61
e 45 63
e 45 64
e 45 67
e 45 68
e 45 76
e 45 80
e 46 47
e 46 48
e 46 50
e 46 54
e 46 63
e 46 64
e 46 67
e 46 68
e 46 72
e 46 79
e 46 80
e 47 49
e 47 51
e 47 56
e 47 60
e 47 66
e 47 70
e 47 73
e 47 78
e 48 49
e 48 51
e 48 56
e 48 58
e 48 59
e 48 60
e 48 69
e 48 71
e 48 73
e 48 77
e 48 78
e 49 50
e 49 52
e 49 55
e 49 57
e 49 61
e 49 64
e 49 67
e 49 72
e 49 74
e 49 75
e 49 76
e 49 79
e 49 80
e 50 51
e 50 56
e 50 59
e 50 60
e 50 71
e 50 73
e 51 52
e 51 55
e 51 57
e 51 63
e 51 64
e 51 68
e 51 75
e 51 76
e 51 79
e 51 80
e 52 56
e 52 60
e 52 65
e 52 70
e 52 71
e 52 77
e 52 78
e 53 56
e 53 58
e 53 60
e 53 65
e 53 66
e 53 69
e 53 71
e 53 73
e 53 78
e 54 56
e 54 58
e 54 59
e 54 60
e 54 62
e 54 66
e 54 69
e 54 71
e 54 77
e 54 78
e 55 58
e 55 65
e 55 70
e 55 71
e 55 77
e 55 78
e 56 57
e 56 64
e 56 68
e 56 72
e 56 74
e 56 75
e 56 79
e 56 80
e 57 59
e 57 66
e 57 69
e 57 71
e 57 77
e 57 78
e 58 67
e 58 68
e 58 72
e 58 76
e 58 80
e 59 61
e 59 63
e 59 64
e 59 68
e 59 74
e 59 75
e 59 76
e 59 79
e 59 80
e 60 61
e 60 63
e 60 67
e 60 68
e 60 72
e 60 80
e 61 62
e 61 65
e 61 66
e 61 70
e 61 71
e 61 73
e 61 78
e 62 63
e 62 64
e 62 67
e 62 68
e 62 76
e 62 80
e 63 65
e 63 69
e 63 70
e 63 71
e 64 65
e 64 66
e 64 69
e 64 70
e 64 71
e 64 73
e 64 77
e 64 78
e 65 68
e 65 72
e 65 74
e 65 75
e 65 76
e 65 79
e 66 72
e 66 74
e 66 75
e 66 80
e 67 69
e 67 71
e 67 73
e 67 77
e 67 78
e 68 71
e 68 73
e 68 77
e 69 75
e 69 76
e 69 79
e 70 76
e 70 79
e 71 74
e 71 80
e 72 73
e 72 77
e 72 78
e 73 74
e 73 75
e 73 76
e 73 80
e 74 78
e 75 77
e 75 78
e 76 78
e 77 79
e 77 80
e 78 80
